p cnf 420 1210
e 1 2 3 4 13 19 22 35 36 42 45 49 51 0
a 227 303 314 409 0
e 5 6 7 8 9 10 11 12 14 15 16 17 18 20 21 23 24 25 26 27 28 29 30 31 32 33 34 37 38 39 40 41 43 44 46 47 48 50 52 53 54 55 56 57 58 59 60 61 62 63 64 65 66 67 68 69 70 71 72 73 74 75 76 77 78 79 80 81 82 83 84 85 86 87 88 89 90 91 92 93 94 95 96 97 98 99 100 101 102 103 104 105 106 107 108 109 110 111 112 113 114 115 116 117 118 119 120 121 122 123 124 125 126 127 128 129 130 131 132 133 134 135 136 137 138 139 140 141 142 143 144 145 146 147 148 149 150 151 152 153 154 155 156 157 158 159 160 161 162 163 164 165 166 167 168 169 170 171 172 173 174 175 176 177 178 179 180 181 182 183 184 185 186 187 188 189 190 191 192 193 194 195 196 197 198 199 200 201 202 203 204 205 206 207 208 209 210 211 212 213 214 215 216 217 218 219 220 221 222 223 224 225 226 228 229 230 231 232 233 234 235 236 237 238 239 240 241 242 243 244 245 246 247 248 249 250 251 252 253 254 255 256 257 258 259 260 261 262 263 264 265 266 267 268 269 270 271 272 273 274 275 276 277 278 279 280 281 282 283 284 285 286 287 288 289 290 291 292 293 294 295 296 297 298 299 300 301 302 304 305 306 307 308 309 310 311 312 313 315 316 317 318 319 320 321 322 323 324 325 326 327 328 329 330 331 332 333 334 335 336 337 338 339 340 341 342 343 344 345 346 347 348 349 350 351 352 353 354 355 356 357 358 359 360 361 362 363 364 365 366 367 368 369 370 371 372 373 374 375 376 377 378 379 380 381 382 383 384 385 386 387 388 389 390 391 392 393 394 395 396 397 398 399 400 401 402 403 404 405 406 407 408 410 411 412 413 414 415 416 417 418 419 420 0
420 0
-5 -3 0
-5 4 0
5 3 -4 0
-6 1 0
-6 -5 0
6 -1 5 0
-7 -1 0
-7 -6 0
7 1 6 0
-8 2 0
-8 7 0
8 -2 -7 0
-9 1 0
-9 8 0
9 -1 -8 0
-10 -1 0
-10 2 0
10 1 -2 0
-11 -1 0
-11 -10 0
11 1 10 0
-12 -1 0
-12 9 0
12 1 -9 0
-14 -13 0
-14 1 0
14 13 -1 0
-15 -1 0
-15 -7 0
15 1 7 0
-16 -14 0
-16 -15 0
16 14 15 0
-17 -10 0
-17 -16 0
17 10 16 0
-18 -9 0
-18 -17 0
18 9 17 0
-20 -10 0
-20 15 0
20 10 -15 0
-21 -19 0
-21 20 0
21 19 -20 0
-23 -22 0
-23 13 0
23 22 -13 0
-24 10 0
-24 -23 0
24 -10 23 0
-25 -10 0
-25 -24 0
25 10 24 0
-26 -1 0
-26 -25 0
26 1 25 0
-27 -1 0
-27 8 0
27 1 -8 0
-28 -26 0
-28 -27 0
28 26 27 0
-29 -21 0
-29 28 0
29 21 -28 0
-30 18 0
-30 29 0
30 -18 -29 0
-31 10 0
-31 -7 0
31 -10 7 0
-32 22 0
-32 13 0
32 -22 -13 0
-33 31 0
-33 -32 0
33 -31 32 0
-34 -31 0
-34 -33 0
34 31 33 0
-37 -35 0
-37 36 0
37 35 -36 0
-38 11 0
-38 -37 0
38 -11 37 0
-39 34 0
-39 -38 0
39 -34 38 0
-40 -11 0
-40 -21 0
40 11 21 0
-41 39 0
-41 40 0
41 -39 -40 0
-43 42 0
-43 13 0
43 -42 -13 0
-44 1 0
-44 43 0
44 -1 -43 0
-46 -1 0
-46 45 0
46 1 -45 0
-47 20 0
-47 46 0
47 -20 -46 0
-48 -44 0
-48 -47 0
48 44 47 0
-50 49 0
-50 1 0
50 -49 -1 0
-52 -10 0
-52 7 0
52 10 -7 0
-53 51 0
-53 52 0
53 -51 -52 0
-54 -50 0
-54 -53 0
54 50 53 0
-55 -1 0
-55 -54 0
55 1 54 0
-56 48 0
-56 -55 0
56 -48 55 0
-57 22 0
-57 10 0
57 -22 -10 0
-58 3 0
-58 1 0
58 -3 -1 0
-59 -1 0
-59 -58 0
59 1 58 0
-60 -59 0
-60 11 0
60 59 -11 0
-61 -19 0
-61 60 0
61 19 -60 0
-62 -1 0
-62 -59 0
62 1 59 0
-63 -10 0
-63 62 0
63 10 -62 0
-64 -10 0
-64 -63 0
64 10 63 0
-65 -10 0
-65 64 0
65 10 -64 0
-66 -61 0
-66 65 0
66 61 -65 0
-67 66 0
-67 -14 0
67 -66 14 0
-68 -57 0
-68 67 0
68 57 -67 0
-69 -13 0
-69 10 0
69 13 -10 0
-70 68 0
-70 -69 0
70 -68 69 0
-71 -1 0
-71 60 0
71 1 -60 0
-72 45 0
-72 71 0
72 -45 -71 0
-73 -10 0
-73 59 0
73 10 -59 0
-74 -1 0
-74 73 0
74 1 -73 0
-75 51 0
-75 74 0
75 -51 -74 0
-76 -72 0
-76 -75 0
76 72 75 0
-77 13 0
-77 1 0
77 -13 -1 0
-78 42 0
-78 77 0
78 -42 -77 0
-79 76 0
-79 -78 0
79 -76 78 0
-80 -36 0
-80 74 0
80 36 -74 0
-81 35 0
-81 74 0
81 -35 -74 0
-82 10 0
-82 -59 0
82 -10 59 0
-83 -82 0
-83 -11 0
83 82 11 0
-84 -81 0
-84 83 0
84 81 -83 0
-85 -80 0
-85 84 0
85 80 -84 0
-86 85 0
-86 -61 0
86 -85 61 0
-87 -22 0
-87 82 0
87 22 -82 0
-88 86 0
-88 -87 0
88 -86 87 0
-89 -13 0
-89 82 0
89 13 -82 0
-90 88 0
-90 -89 0
90 -88 89 0
-91 -79 0
-91 -90 0
91 79 90 0
-92 70 0
-92 91 0
92 -70 -91 0
-93 -11 0
-93 92 0
93 11 -92 0
-94 11 0
-94 -79 0
94 -11 79 0
-95 90 0
-95 94 0
95 -90 -94 0
-96 -93 0
-96 -95 0
96 93 95 0
-97 -79 0
-97 90 0
97 79 -90 0
-98 70 0
-98 97 0
98 -70 -97 0
-99 -11 0
-99 98 0
99 11 -98 0
-100 90 0
-100 70 0
100 -90 -70 0
-101 -70 0
-101 91 0
101 70 -91 0
-102 -11 0
-102 -101 0
102 11 101 0
-103 -100 0
-103 102 0
103 100 -102 0
-104 -79 0
-104 103 0
104 79 -103 0
-105 79 0
-105 70 0
105 -79 -70 0
-106 90 0
-106 105 0
106 -90 -105 0
-107 11 0
-107 79 0
107 -11 -79 0
-108 -106 0
-108 -107 0
108 106 107 0
-109 -104 0
-109 108 0
109 104 -108 0
-110 11 0
-110 -70 0
110 -11 70 0
-111 -70 0
-111 94 0
111 70 -94 0
-112 109 0
-112 -96 0
112 -109 96 0
-113 -99 0
-113 96 0
113 99 -96 0
-114 -11 0
-114 100 0
114 11 -100 0
-115 79 0
-115 114 0
115 -79 -114 0
-116 79 0
-116 90 0
116 -79 -90 0
-117 -70 0
-117 116 0
117 70 -116 0
-118 79 0
-118 -90 0
118 -79 90 0
-119 11 0
-119 118 0
119 -11 -118 0
-120 -90 0
-120 105 0
120 90 -105 0
-121 -11 0
-121 120 0
121 11 -120 0
-122 109 0
-122 -99 0
122 -109 99 0
-123 -113 0
-123 -122 0
123 113 122 0
-124 -11 0
-124 -90 0
124 11 90 0
-125 -79 0
-125 124 0
125 79 -124 0
-126 -70 0
-126 125 0
126 70 -125 0
-127 -79 0
-127 114 0
127 79 -114 0
-128 -126 0
-128 -127 0
128 126 127 0
-129 -70 0
-129 118 0
129 70 -118 0
-130 -11 0
-130 -109 0
130 11 109 0
-131 -11 0
-131 130 0
131 11 -130 0
-132 -129 0
-132 131 0
132 129 -131 0
-133 -129 0
-133 132 0
133 129 -132 0
-134 -101 0
-134 133 0
134 101 -133 0
-135 -109 0
-135 134 0
135 109 -134 0
-136 -109 0
-136 135 0
136 109 -135 0
-137 128 0
-137 136 0
137 -128 -136 0
-138 -109 0
-138 137 0
138 109 -137 0
-139 -109 0
-139 138 0
139 109 -138 0
-140 -99 0
-140 139 0
140 99 -139 0
-141 100 0
-141 140 0
141 -100 -140 0
-142 -123 0
-142 141 0
142 123 -141 0
-143 -121 0
-143 142 0
143 121 -142 0
-144 -109 0
-144 143 0
144 109 -143 0
-145 -120 0
-145 144 0
145 120 -144 0
-146 -119 0
-146 145 0
146 119 -145 0
-147 -117 0
-147 146 0
147 117 -146 0
-148 115 0
-148 147 0
148 -115 -147 0
-149 -97 0
-149 148 0
149 97 -148 0
-150 105 0
-150 149 0
150 -105 -149 0
-151 -109 0
-151 150 0
151 109 -150 0
-152 -109 0
-152 151 0
152 109 -151 0
-153 90 0
-153 152 0
153 -90 -152 0
-154 -94 0
-154 153 0
154 94 -153 0
-155 79 0
-155 154 0
155 -79 -154 0
-156 113 0
-156 155 0
156 -113 -155 0
-157 -109 0
-157 156 0
157 109 -156 0
-158 -109 0
-158 157 0
158 109 -157 0
-159 -92 0
-159 158 0
159 92 -158 0
-160 -112 0
-160 159 0
160 112 -159 0
-161 -111 0
-161 160 0
161 111 -160 0
-162 -109 0
-162 161 0
162 109 -161 0
-163 70 0
-163 162 0
163 -70 -162 0
-164 -109 0
-164 163 0
164 109 -163 0
-165 -11 0
-165 164 0
165 11 -164 0
-166 79 0
-166 165 0
166 -79 -165 0
-167 -110 0
-167 166 0
167 110 -166 0
-168 -109 0
-168 167 0
168 109 -167 0
-169 -99 0
-169 168 0
169 99 -168 0
-170 96 0
-170 169 0
170 -96 -169 0
-171 56 0
-171 170 0
171 -56 -170 0
-172 41 0
-172 171 0
172 -41 -171 0
-173 30 0
-173 172 0
173 -30 -172 0
-174 -12 0
-174 173 0
174 12 -173 0
-175 -11 0
-175 174 0
175 11 -174 0
-176 -9 0
-176 175 0
176 9 -175 0
-177 97 0
-177 -94 0
177 -97 94 0
-178 11 0
-178 177 0
178 -11 -177 0
-179 11 0
-179 -109 0
179 -11 109 0
-180 -178 0
-180 179 0
180 178 -179 0
-181 -129 0
-181 180 0
181 129 -180 0
-182 -129 0
-182 181 0
182 129 -181 0
-183 -101 0
-183 182 0
183 101 -182 0
-184 -109 0
-184 183 0
184 109 -183 0
-185 -109 0
-185 184 0
185 109 -184 0
-186 128 0
-186 185 0
186 -128 -185 0
-187 -109 0
-187 186 0
187 109 -186 0
-188 -109 0
-188 187 0
188 109 -187 0
-189 -99 0
-189 188 0
189 99 -188 0
-190 -100 0
-190 189 0
190 100 -189 0
-191 -123 0
-191 190 0
191 123 -190 0
-192 -121 0
-192 191 0
192 121 -191 0
-193 -109 0
-193 192 0
193 109 -192 0
-194 120 0
-194 193 0
194 -120 -193 0
-195 119 0
-195 194 0
195 -119 -194 0
-196 -117 0
-196 195 0
196 117 -195 0
-197 -115 0
-197 196 0
197 115 -196 0
-198 -97 0
-198 197 0
198 97 -197 0
-199 105 0
-199 198 0
199 -105 -198 0
-200 -109 0
-200 199 0
200 109 -199 0
-201 -109 0
-201 200 0
201 109 -200 0
-202 -90 0
-202 201 0
202 90 -201 0
-203 -94 0
-203 202 0
203 94 -202 0
-204 79 0
-204 203 0
204 -79 -203 0
-205 113 0
-205 204 0
205 -113 -204 0
-206 -109 0
-206 205 0
206 109 -205 0
-207 -109 0
-207 206 0
207 109 -206 0
-208 -92 0
-208 207 0
208 92 -207 0
-209 -112 0
-209 208 0
209 112 -208 0
-210 -111 0
-210 209 0
210 111 -209 0
-211 -109 0
-211 210 0
211 109 -210 0
-212 70 0
-212 211 0
212 -70 -211 0
-213 -109 0
-213 212 0
213 109 -212 0
-214 11 0
-214 213 0
214 -11 -213 0
-215 79 0
-215 214 0
215 -79 -214 0
-216 -110 0
-216 215 0
216 110 -215 0
-217 -109 0
-217 216 0
217 109 -216 0
-218 -99 0
-218 217 0
218 99 -217 0
-219 96 0
-219 218 0
219 -96 -218 0
-220 56 0
-220 219 0
220 -56 -219 0
-221 -41 0
-221 220 0
221 41 -220 0
-222 30 0
-222 221 0
222 -30 -221 0
-223 -12 0
-223 222 0
223 12 -222 0
-224 11 0
-224 223 0
224 -11 -223 0
-225 -9 0
-225 224 0
225 9 -224 0
-226 -176 0
-226 -225 0
226 176 225 0
-228 -227 0
-228 109 0
228 227 -109 0
-229 227 0
-229 -109 0
229 -227 109 0
-230 -228 0
-230 -229 0
230 228 229 0
-231 -227 0
-231 -79 0
231 227 79 0
-232 227 0
-232 79 0
232 -227 -79 0
-233 -231 0
-233 -232 0
233 231 232 0
-234 11 0
-234 230 0
234 -11 -230 0
-235 -178 0
-235 234 0
235 178 -234 0
-236 -129 0
-236 235 0
236 129 -235 0
-237 -129 0
-237 236 0
237 129 -236 0
-238 -101 0
-238 237 0
238 101 -237 0
-239 230 0
-239 238 0
239 -230 -238 0
-240 128 0
-240 239 0
240 -128 -239 0
-241 230 0
-241 240 0
241 -230 -240 0
-242 -99 0
-242 241 0
242 99 -241 0
-243 -100 0
-243 242 0
243 100 -242 0
-244 -123 0
-244 243 0
244 123 -243 0
-245 -121 0
-245 244 0
245 121 -244 0
-246 230 0
-246 245 0
246 -230 -245 0
-247 227 0
-247 120 0
247 -227 -120 0
-248 -227 0
-248 -120 0
248 227 120 0
-249 -247 0
-249 -248 0
249 247 248 0
-250 246 0
-250 249 0
250 -246 -249 0
-251 227 0
-251 119 0
251 -227 -119 0
-252 -227 0
-252 -119 0
252 227 119 0
-253 -251 0
-253 -252 0
253 251 252 0
-254 250 0
-254 253 0
254 -250 -253 0
-255 -117 0
-255 254 0
255 117 -254 0
-256 -115 0
-256 255 0
256 115 -255 0
-257 -97 0
-257 256 0
257 97 -256 0
-258 -227 0
-258 -105 0
258 227 105 0
-259 227 0
-259 105 0
259 -227 -105 0
-260 -258 0
-260 -259 0
260 258 259 0
-261 257 0
-261 260 0
261 -257 -260 0
-262 230 0
-262 261 0
262 -230 -261 0
-263 -90 0
-263 262 0
263 90 -262 0
-264 -227 0
-264 94 0
264 227 -94 0
-265 227 0
-265 -94 0
265 -227 94 0
-266 -264 0
-266 -265 0
266 264 265 0
-267 263 0
-267 266 0
267 -263 -266 0
-268 267 0
-268 233 0
268 -267 -233 0
-269 113 0
-269 268 0
269 -113 -268 0
-270 230 0
-270 269 0
270 -230 -269 0
-271 -227 0
-271 122 0
271 227 -122 0
-272 227 0
-272 -122 0
272 -227 122 0
-273 -271 0
-273 -272 0
273 271 272 0
-274 270 0
-274 273 0
274 -270 -273 0
-275 -227 0
-275 92 0
275 227 -92 0
-276 227 0
-276 -92 0
276 -227 92 0
-277 -275 0
-277 -276 0
277 275 276 0
-278 274 0
-278 277 0
278 -274 -277 0
-279 -112 0
-279 278 0
279 112 -278 0
-280 -111 0
-280 279 0
280 111 -279 0
-281 230 0
-281 280 0
281 -230 -280 0
-282 70 0
-282 281 0
282 -70 -281 0
-283 230 0
-283 282 0
283 -230 -282 0
-284 11 0
-284 283 0
284 -11 -283 0
-285 233 0
-285 284 0
285 -233 -284 0
-286 -110 0
-286 285 0
286 110 -285 0
-287 230 0
-287 286 0
287 -230 -286 0
-288 -99 0
-288 287 0
288 99 -287 0
-289 96 0
-289 288 0
289 -96 -288 0
-290 -227 0
-290 -56 0
290 227 56 0
-291 227 0
-291 56 0
291 -227 -56 0
-292 -290 0
-292 -291 0
292 290 291 0
-293 289 0
-293 292 0
293 -289 -292 0
-294 -41 0
-294 293 0
294 41 -293 0
-295 30 0
-295 294 0
295 -30 -294 0
-296 -12 0
-296 295 0
296 12 -295 0
-297 11 0
-297 296 0
297 -11 -296 0
-298 -9 0
-298 297 0
298 9 -297 0
-299 226 0
-299 -298 0
299 -226 298 0
-300 227 0
-300 11 0
300 -227 -11 0
-301 -227 0
-301 -11 0
301 227 11 0
-302 -300 0
-302 -301 0
302 300 301 0
-304 -227 0
-304 303 0
304 227 -303 0
-305 -227 0
-305 -304 0
305 227 304 0
-306 109 0
-306 305 0
306 -109 -305 0
-307 -109 0
-307 -305 0
307 109 305 0
-308 -306 0
-308 -307 0
308 306 307 0
-309 -79 0
-309 -304 0
309 79 304 0
-310 79 0
-310 304 0
310 -79 -304 0
-311 -309 0
-311 -310 0
311 309 310 0
-312 302 0
-312 308 0
312 -302 -308 0
-313 -178 0
-313 312 0
313 178 -312 0
-315 314 0
-315 227 0
315 -314 -227 0
-316 -227 0
-316 -315 0
316 227 315 0
-317 -316 0
-317 305 0
317 316 -305 0
-318 129 0
-318 -317 0
318 -129 317 0
-319 -129 0
-319 317 0
319 129 -317 0
-320 -318 0
-320 -319 0
320 318 319 0
-321 313 0
-321 320 0
321 -313 -320 0
-322 304 0
-322 -316 0
322 -304 316 0
-323 101 0
-323 -322 0
323 -101 322 0
-324 -101 0
-324 322 0
324 101 -322 0
-325 -323 0
-325 -324 0
325 323 324 0
-326 321 0
-326 325 0
326 -321 -325 0
-327 308 0
-327 326 0
327 -308 -326 0
-328 128 0
-328 327 0
328 -128 -327 0
-329 308 0
-329 328 0
329 -308 -328 0
-330 -99 0
-330 329 0
330 99 -329 0
-331 -100 0
-331 330 0
331 100 -330 0
-332 -123 0
-332 331 0
332 123 -331 0
-333 -121 0
-333 332 0
333 121 -332 0
-334 308 0
-334 333 0
334 -308 -333 0
-335 -304 0
-335 316 0
335 304 -316 0
-336 -227 0
-336 335 0
336 227 -335 0
-337 120 0
-337 -336 0
337 -120 336 0
-338 -120 0
-338 336 0
338 120 -336 0
-339 -337 0
-339 -338 0
339 337 338 0
-340 334 0
-340 339 0
340 -334 -339 0
-341 119 0
-341 -305 0
341 -119 305 0
-342 -119 0
-342 305 0
342 119 -305 0
-343 -341 0
-343 -342 0
343 341 342 0
-344 340 0
-344 343 0
344 -340 -343 0
-345 -227 0
-345 117 0
345 227 -117 0
-346 227 0
-346 -117 0
346 -227 117 0
-347 -345 0
-347 -346 0
347 345 346 0
-348 344 0
-348 347 0
348 -344 -347 0
-349 -115 0
-349 348 0
349 115 -348 0
-350 -97 0
-350 349 0
350 97 -349 0
-351 -105 0
-351 335 0
351 105 -335 0
-352 105 0
-352 -335 0
352 -105 335 0
-353 -351 0
-353 -352 0
353 351 352 0
-354 350 0
-354 353 0
354 -350 -353 0
-355 308 0
-355 354 0
355 -308 -354 0
-356 227 0
-356 -90 0
356 -227 90 0
-357 -227 0
-357 90 0
357 227 -90 0
-358 -356 0
-358 -357 0
358 356 357 0
-359 355 0
-359 358 0
359 -355 -358 0
-360 94 0
-360 -304 0
360 -94 304 0
-361 -94 0
-361 304 0
361 94 -304 0
-362 -360 0
-362 -361 0
362 360 361 0
-363 359 0
-363 362 0
363 -359 -362 0
-364 363 0
-364 311 0
364 -363 -311 0
-365 113 0
-365 364 0
365 -113 -364 0
-366 308 0
-366 365 0
366 -308 -365 0
-367 122 0
-367 305 0
367 -122 -305 0
-368 -122 0
-368 -305 0
368 122 305 0
-369 -367 0
-369 -368 0
369 367 368 0
-370 366 0
-370 369 0
370 -366 -369 0
-371 92 0
-371 -304 0
371 -92 304 0
-372 -92 0
-372 304 0
372 92 -304 0
-373 -371 0
-373 -372 0
373 371 372 0
-374 370 0
-374 373 0
374 -370 -373 0
-375 -112 0
-375 374 0
375 112 -374 0
-376 111 0
-376 -322 0
376 -111 322 0
-377 -111 0
-377 322 0
377 111 -322 0
-378 -376 0
-378 -377 0
378 376 377 0
-379 375 0
-379 378 0
379 -375 -378 0
-380 308 0
-380 379 0
380 -308 -379 0
-381 -70 0
-381 316 0
381 70 -316 0
-382 70 0
-382 -316 0
382 -70 316 0
-383 -381 0
-383 -382 0
383 381 382 0
-384 380 0
-384 383 0
384 -380 -383 0
-385 90 0
-385 -70 0
385 -90 70 0
-386 -227 0
-386 385 0
386 227 -385 0
-387 227 0
-387 -385 0
387 -227 385 0
-388 -386 0
-388 -387 0
388 386 387 0
-389 384 0
-389 388 0
389 -384 -388 0
-390 308 0
-390 389 0
390 -308 -389 0
-391 302 0
-391 390 0
391 -302 -390 0
-392 311 0
-392 391 0
392 -311 -391 0
-393 -227 0
-393 -316 0
393 227 316 0
-394 110 0
-394 -393 0
394 -110 393 0
-395 -110 0
-395 393 0
395 110 -393 0
-396 -394 0
-396 -395 0
396 394 395 0
-397 392 0
-397 396 0
397 -392 -396 0
-398 308 0
-398 397 0
398 -308 -397 0
-399 -99 0
-399 398 0
399 99 -398 0
-400 96 0
-400 399 0
400 -96 -399 0
-401 -56 0
-401 -304 0
401 56 304 0
-402 56 0
-402 304 0
402 -56 -304 0
-403 -401 0
-403 -402 0
403 401 402 0
-404 400 0
-404 403 0
404 -400 -403 0
-405 227 0
-405 -41 0
405 -227 41 0
-406 -227 0
-406 41 0
406 227 -41 0
-407 -405 0
-407 -406 0
407 405 406 0
-408 404 0
-408 407 0
408 -404 -407 0
-410 -314 0
-410 409 0
410 314 -409 0
-411 227 0
-411 -410 0
411 -227 410 0
-412 -227 0
-412 -411 0
412 227 411 0
-413 -30 0
-413 412 0
413 30 -412 0
-414 30 0
-414 -412 0
414 -30 412 0
-415 -413 0
-415 -414 0
415 413 414 0
-416 408 0
-416 415 0
416 -408 -415 0
-417 -12 0
-417 416 0
417 12 -416 0
-418 302 0
-418 417 0
418 -302 -417 0
-419 -9 0
-419 418 0
419 9 -418 0
-420 299 0
-420 -419 0
420 -299 419 0
